100 10
401 728
658 411
552 72
798 664
270 538
249 680
461 468
580 705
379 247
620 275
739 833
139 691
559 106
739 274
518 556
718 636
121 591
30 574
418 688
779 631
370 471
804 514
378 438
611 535
683 808
548 232
720 127
382 516
194 757
455 518
811 343
130 650
274 623
907 871
748 744
915 591
887 243
613 634
748 372
775 802
411 78
296 305
671 364
304 641
715 684
923 275
322 715
376 515
780 308
771 276
780 433
572 161
522 465
750 282
399 451
580 381
637 144
427 586
25 588
660 546
826 380
456 381
771 411
442 634
544 565
624 21
558 452
310 507
740 748
369 854
447 436
544 446
635 388
589 410
895 715
220 806
919 252
419 650
227 409
804 415
287 805
379 464
157 487
443 448
628 461
65 566
540 294
603 78
410 534
167 452
449 590
676 304
602 358
697 733
734 254
613 839
552 536
812 251
290 737
666 497
